(set-info :status sat)
(declare-const symbol_17 (_ BitVec 32))
(declare-const symbol_15 (_ BitVec 32))
(declare-const symbol_9 (_ BitVec 32))
(declare-const symbol_11 (_ BitVec 32))
(declare-const symbol_3 (_ BitVec 32))
(declare-const symbol_1 (_ BitVec 32))
(declare-const symbol_21 (_ BitVec 32))
(declare-const symbol_19 (_ BitVec 32))
(declare-const symbol_13 (_ BitVec 32))
(declare-const symbol_7 (_ BitVec 32))
(declare-const symbol_5 (_ BitVec 32))
(assert (= symbol_17 symbol_21))
(assert (not (= symbol_15 symbol_21)))
(assert (not (= symbol_13 symbol_21)))
(assert (not (= symbol_11 symbol_21)))
(assert (not (= symbol_9 symbol_21)))
(assert (not (= symbol_7 symbol_21)))
(assert (not (= symbol_5 symbol_21)))
(assert (not (= symbol_3 symbol_21)))
(assert (not (= symbol_1 symbol_21)))
(assert (not (= symbol_17 symbol_19)))
(assert (not (= symbol_15 symbol_19)))
(assert (not (= symbol_13 symbol_19)))
(assert (not (= symbol_11 symbol_19)))
(assert (not (= symbol_9 symbol_19)))
(assert (not (= symbol_7 symbol_19)))
(assert (not (= symbol_5 symbol_19)))
(assert (not (= symbol_3 symbol_19)))
(assert (not (= symbol_1 symbol_19)))
(assert (not (= symbol_15 symbol_17)))
(assert (not (= symbol_13 symbol_17)))
(assert (not (= symbol_11 symbol_17)))
(assert (not (= symbol_9 symbol_17)))
(assert (not (= symbol_7 symbol_17)))
(assert (not (= symbol_5 symbol_17)))
(assert (not (= symbol_3 symbol_17)))
(assert (not (= symbol_1 symbol_17)))
(assert (not (= symbol_13 symbol_15)))
(assert (not (= symbol_11 symbol_15)))
(assert (not (= symbol_9 symbol_15)))
(assert (not (= symbol_7 symbol_15)))
(assert (not (= symbol_5 symbol_15)))
(assert (not (= symbol_3 symbol_15)))
(assert (not (= symbol_1 symbol_15)))
(assert (not (= symbol_11 symbol_13)))
(assert (not (= symbol_9 symbol_13)))
(assert (not (= symbol_7 symbol_13)))
(assert (not (= symbol_5 symbol_13)))
(assert (not (= symbol_3 symbol_13)))
(assert (not (= symbol_1 symbol_13)))
(assert (not (= symbol_9 symbol_11)))
(assert (not (= symbol_7 symbol_11)))
(assert (not (= symbol_5 symbol_11)))
(assert (not (= symbol_3 symbol_11)))
(assert (not (= symbol_1 symbol_11)))
(assert (not (= symbol_7 symbol_9)))
(assert (not (= symbol_5 symbol_9)))
(assert (not (= symbol_3 symbol_9)))
(assert (not (= symbol_1 symbol_9)))
(assert (not (= symbol_5 symbol_7)))
(assert (not (= symbol_3 symbol_7)))
(assert (not (= symbol_1 symbol_7)))
(assert (not (= symbol_3 symbol_5)))
(assert (not (= symbol_1 symbol_5)))
(assert (not (= symbol_1 symbol_3)))
(check-sat)